53
50 11 188
11 24 245
24 3 109
3 42 245
42 32 365
32 9 501
9 8 83
8 7 183
7 40 64
40 18 92
18 44 75
44 31 151
31 38 148
38 39 43
39 36 41
36 37 43
37 4 51
4 14 25
14 5 40
5 23 57
23 47 16
47 45 125
45 15 156
15 43 132
43 33 80
33 34 21
34 35 15
35 48 81
48 21 94
21 30 104
30 17 80
17 2 135
2 16 217
16 20 253
20 41 290
41 6 76
6 1 45
1 52 187
52 29 480
29 22 179
22 19 94
19 49 35
49 28 191
28 46 523
46 25 186
25 27 159
27 26 110
26 12 185
12 13 206
13 51 319
51 10 399
10 50 285

